\ LP format - for model browsing. Use MPS format to capture full model detail.
Maximize
  92.16 x_00 + 161.28 x_10 + 138.24 x_20 + 115.2 x_30 + 46.08 x_40
   + 138.24 x_50 + 184.32 x_60 + 69.12 x_70 + 92.16 x_80 + 138.24 x_90
   + 115.2 x_01 + 92.16 x_11 + 92.16 x_21 + 184.32 x_31 + 92.16 x_41
   + 184.32 x_51 + 161.28 x_61 + 184.32 x_71 + 69.12 x_81 + 92.16 x_91
   + 92.16 x_101 + 92.16 x_02 + 115.2 x_12 + 69.12 x_22 + 92.16 x_32
   + 138.24 x_42 + 92.16 x_52 + 184.32 x_62 + 161.28 x_72 + 46.08 x_82
   + 92.16 x_92 + 115.2 x_102 + 92.16 x_112 + 115.2 x_122 + 115.2 x_03
   + 46.08 x_13 + 46.08 x_23 + 115.2 x_33 + 161.28 x_43 + 161.28 x_53
   + 161.28 x_63 + 161.28 x_73 + 184.32 x_83 + 92.16 x_93 + 92.16 x_103
   + 46.08 x_113 + 92.16 x_123 + 184.32 x_133 + 46.08 x_143 + 69.12 x_04
   + 138.24 x_14 + 115.2 x_24 + 69.12 x_34 + 115.2 x_44 + 46.08 x_54
   + 69.12 x_64 + 115.2 x_74 + 184.32 x_84 + 92.16 x_94 + 184.32 x_104
   + 92.16 x_114 + 46.08 x_124 + 138.24 x_134 + 46.08 x_144 + 46.08 x_154
   + 161.28 x_05 + 138.24 x_15 + 161.28 x_25 + 46.08 x_35 + 161.28 x_45
   + 184.32 x_55 + 115.2 x_65 + 69.12 x_75 + 92.16 x_85 + 161.28 x_95
   + 184.32 x_105 + 46.08 x_115 + 69.12 x_125 + 161.28 x_135 + 69.12 x_145
   + 184.32 x_06 + 46.08 x_16 + 46.08 x_26 + 138.24 x_36 + 46.08 x_46
   + 46.08 x_56 + 46.08 x_66 + 161.28 x_76 + 46.08 x_86 + 138.24 x_96
   - 880 b_0 - 880 b_1 - 880 b_2 - 880 b_3 - 880 b_4 - 880 b_5 - 880 b_6
Subject To
 R0: 12 x_00 + 18 x_10 + 15 x_20 + 15 x_30 + 9 x_40 + 15 x_50 + 18 x_60
   + 12 x_70 + 12 x_80 + 15 x_90 + s_0 - e_0 = 100
 R1: 15 x_01 + 12 x_11 + 12 x_21 + 18 x_31 + 12 x_41 + 18 x_51 + 18 x_61
   + 18 x_71 + 12 x_81 + 12 x_91 + 12 x_101 + s_1 - e_1 = 100
 R2: 12 x_02 + 15 x_12 + 12 x_22 + 12 x_32 + 15 x_42 + 12 x_52 + 18 x_62
   + 18 x_72 + 9 x_82 + 12 x_92 + 15 x_102 + 12 x_112 + 15 x_122 + s_2
   - e_2 = 100
 R3: 15 x_03 + 9 x_13 + 9 x_23 + 15 x_33 + 18 x_43 + 18 x_53 + 18 x_63
   + 18 x_73 + 18 x_83 + 12 x_93 + 12 x_103 + 9 x_113 + 12 x_123 + 18 x_133
   + 9 x_143 + s_3 - e_3 = 100
 R4: 12 x_04 + 15 x_14 + 15 x_24 + 12 x_34 + 15 x_44 + 9 x_54 + 12 x_64
   + 15 x_74 + 18 x_84 + 12 x_94 + 18 x_104 + 12 x_114 + 9 x_124 + 15 x_134
   + 9 x_144 + 9 x_154 + s_4 - e_4 = 100
 R5: 18 x_05 + 15 x_15 + 18 x_25 + 9 x_35 + 18 x_45 + 18 x_55 + 15 x_65
   + 12 x_75 + 12 x_85 + 18 x_95 + 18 x_105 + 9 x_115 + 12 x_125 + 18 x_135
   + 12 x_145 + s_5 - e_5 = 100
 R6: 18 x_06 + 9 x_16 + 9 x_26 + 15 x_36 + 9 x_46 + 9 x_56 + 9 x_66
   + 18 x_76 + 9 x_86 + 15 x_96 + s_6 - e_6 = 100
 R7: 1e+06 b_0 - e_0 >= 0
 R8: 1e+06 b_1 - e_1 >= 0
 R9: 1e+06 b_2 - e_2 >= 0
 R10: 1e+06 b_3 - e_3 >= 0
 R11: 1e+06 b_4 - e_4 >= 0
 R12: 1e+06 b_5 - e_5 >= 0
 R13: 1e+06 b_6 - e_6 >= 0
 R14: e_0 <= 20
 R15: e_1 <= 20
 R16: e_2 <= 20
 R17: e_3 <= 20
 R18: e_4 <= 20
 R19: e_5 <= 20
 R20: e_6 <= 20
 R21: x_00 <= 1
 R22: x_10 <= 1
 R23: x_20 <= 1
 R24: x_30 <= 1
 R25: x_40 <= 1
 R26: x_50 <= 1
 R27: x_60 <= 1
 R28: x_70 <= 1
 R29: x_80 <= 1
 R30: x_90 <= 1
 R31: x_01 <= 1
 R32: x_11 <= 1
 R33: x_21 <= 1
 R34: x_31 <= 1
 R35: x_41 <= 1
 R36: x_51 <= 1
 R37: x_61 <= 1
 R38: x_71 <= 1
 R39: x_81 <= 1
 R40: x_91 <= 1
 R41: x_101 <= 1
 R42: x_02 <= 1
 R43: x_12 <= 1
 R44: x_22 <= 1
 R45: x_32 <= 1
 R46: x_42 <= 1
 R47: x_52 <= 1
 R48: x_62 <= 1
 R49: x_72 <= 1
 R50: x_82 <= 1
 R51: x_92 <= 1
 R52: x_102 <= 1
 R53: x_112 <= 1
 R54: x_122 <= 1
 R55: x_03 <= 1
 R56: x_13 <= 1
 R57: x_23 <= 1
 R58: x_33 <= 1
 R59: x_43 <= 1
 R60: x_53 <= 1
 R61: x_63 <= 1
 R62: x_73 <= 1
 R63: x_83 <= 1
 R64: x_93 <= 1
 R65: x_103 <= 1
 R66: x_113 <= 1
 R67: x_123 <= 1
 R68: x_133 <= 1
 R69: x_143 <= 1
 R70: x_04 <= 1
 R71: x_14 <= 1
 R72: x_24 <= 1
 R73: x_34 <= 1
 R74: x_44 <= 1
 R75: x_54 <= 1
 R76: x_64 <= 1
 R77: x_74 <= 1
 R78: x_84 <= 1
 R79: x_94 <= 1
 R80: x_104 <= 1
 R81: x_114 <= 1
 R82: x_124 <= 1
 R83: x_134 <= 1
 R84: x_144 <= 1
 R85: x_154 <= 1
 R86: x_05 <= 1
 R87: x_15 <= 1
 R88: x_25 <= 1
 R89: x_35 <= 1
 R90: x_45 <= 1
 R91: x_55 <= 1
 R92: x_65 <= 1
 R93: x_75 <= 1
 R94: x_85 <= 1
 R95: x_95 <= 1
 R96: x_105 <= 1
 R97: x_115 <= 1
 R98: x_125 <= 1
 R99: x_135 <= 1
 R100: x_145 <= 1
 R101: x_06 <= 1
 R102: x_16 <= 1
 R103: x_26 <= 1
 R104: x_36 <= 1
 R105: x_46 <= 1
 R106: x_56 <= 1
 R107: x_66 <= 1
 R108: x_76 <= 1
 R109: x_86 <= 1
 R110: x_96 <= 1
Bounds
Binaries
 x_00 x_10 x_20 x_30 x_40 x_50 x_60 x_70 x_80 x_90 x_01 x_11 x_21 x_31 x_41
 x_51 x_61 x_71 x_81 x_91 x_101 x_02 x_12 x_22 x_32 x_42 x_52 x_62 x_72
 x_82 x_92 x_102 x_112 x_122 x_03 x_13 x_23 x_33 x_43 x_53 x_63 x_73 x_83
 x_93 x_103 x_113 x_123 x_133 x_143 x_04 x_14 x_24 x_34 x_44 x_54 x_64 x_74
 x_84 x_94 x_104 x_114 x_124 x_134 x_144 x_154 x_05 x_15 x_25 x_35 x_45
 x_55 x_65 x_75 x_85 x_95 x_105 x_115 x_125 x_135 x_145 x_06 x_16 x_26 x_36
 x_46 x_56 x_66 x_76 x_86 x_96 b_0 b_1 b_2 b_3 b_4 b_5 b_6
Generals
 s_0 s_1 s_2 s_3 s_4 s_5 s_6 e_0 e_1 e_2 e_3 e_4 e_5 e_6
End
